p edge 70 784 54
e 1 2
e 1 3
e 1 4
e 1 5
e 1 6
e 1 7
e 1 8
e 1 9
e 1 10
e 1 11
e 1 12
e 1 13
e 1 14
e 1 15
e 1 16
e 1 17
e 1 18
e 1 19
e 1 20
e 1 21
e 1 22
e 1 23
e 1 24
e 1 26
e 1 28
e 1 30
e 1 31
e 1 32
e 1 34
e 1 35
e 1 36
e 1 37
e 1 40
e 1 41
e 1 43
e 1 44
e 1 46
e 1 47
e 1 50
e 1 51
e 1 53
e 1 56
e 1 58
e 1 59
e 1 61
e 1 64
e 1 66
e 1 69
e 2 16
e 2 17
e 2 18
e 2 19
e 2 20
e 2 21
e 2 25
e 2 26
e 2 29
e 2 30
e 2 32
e 2 48
e 2 59
e 2 60
e 2 61
e 2 65
e 3 16
e 3 17
e 3 18
e 3 19
e 3 22
e 3 26
e 3 31
e 3 33
e 3 37
e 3 38
e 3 40
e 3 47
e 3 49
e 3 52
e 3 55
e 3 60
e 3 63
e 4 16
e 4 17
e 4 19
e 4 20
e 4 21
e 4 22
e 4 28
e 4 29
e 4 31
e 4 32
e 4 36
e 4 37
e 4 44
e 4 51
e 4 52
e 4 53
e 4 56
e 4 70
e 5 16
e 5 18
e 5 28
e 5 34
e 5 38
e 5 45
e 5 56
e 5 60
e 5 65
e 6 17
e 6 19
e 6 20
e 6 21
e 6 23
e 6 30
e 6 33
e 6 34
e 6 35
e 6 40
e 6 42
e 6 48
e 6 49
e 6 51
e 6 52
e 6 54
e 6 55
e 6 56
e 6 67
e 7 16
e 7 17
e 7 18
e 7 19
e 7 21
e 7 22
e 7 23
e 7 25
e 7 26
e 7 30
e 7 32
e 7 40
e 7 57
e 7 66
e 8 16
e 8 17
e 8 18
e 8 19
e 8 20
e 8 21
e 8 22
e 8 23
e 8 24
e 8 25
e 8 26
e 8 27
e 8 28
e 8 31
e 8 33
e 8 35
e 8 40
e 8 41
e 8 42
e 8 43
e 8 45
e 8 46
e 8 62
e 8 68
e 9 16
e 9 17
e 9 20
e 9 22
e 9 23
e 9 27
e 9 28
e 9 35
e 9 37
e 9 41
e 9 46
e 9 49
e 9 52
e 9 59
e 10 16
e 10 17
e 10 18
e 10 20
e 10 21
e 10 22
e 10 24
e 10 25
e 10 26
e 10 27
e 10 28
e 10 29
e 10 32
e 10 33
e 10 35
e 10 38
e 10 42
e 10 43
e 10 47
e 10 66
e 10 69
e 11 16
e 11 17
e 11 18
e 11 19
e 11 22
e 11 24
e 11 27
e 11 31
e 11 39
e 11 49
e 11 53
e 11 56
e 11 57
e 11 59
e 11 60
e 12 16
e 12 17
e 12 18
e 12 20
e 12 24
e 12 25
e 12 29
e 12 30
e 12 31
e 12 51
e 12 59
e 12 64
e 12 66
e 12 68
e 13 16
e 13 17
e 13 18
e 13 19
e 13 20
e 13 21
e 13 26
e 13 27
e 13 28
e 13 29
e 13 30
e 13 31
e 13 32
e 13 33
e 13 34
e 13 36
e 13 42
e 13 43
e 13 44
e 13 45
e 13 47
e 13 67
e 14 16
e 14 17
e 14 18
e 14 19
e 14 21
e 14 22
e 14 23
e 14 24
e 14 27
e 14 30
e 14 36
e 14 40
e 14 43
e 14 46
e 14 50
e 14 51
e 14 52
e 14 61
e 14 62
e 14 63
e 14 70
e 15 16
e 15 18
e 15 19
e 15 20
e 15 22
e 15 23
e 15 29
e 15 31
e 15 34
e 15 35
e 15 42
e 15 45
e 15 52
e 15 53
e 15 55
e 15 61
e 15 62
e 16 17
e 16 18
e 16 19
e 16 20
e 16 21
e 16 22
e 16 23
e 16 24
e 16 25
e 16 26
e 16 28
e 16 31
e 16 32
e 16 33
e 16 34
e 16 38
e 16 40
e 16 41
e 16 42
e 16 43
e 16 45
e 16 49
e 16 55
e 16 56
e 16 58
e 16 59
e 16 61
e 16 63
e 16 64
e 16 67
e 16 68
e 16 69
e 17 18
e 17 19
e 17 20
e 17 21
e 17 22
e 17 23
e 17 24
e 17 25
e 17 26
e 17 28
e 17 33
e 17 35
e 17 36
e 17 38
e 17 41
e 17 42
e 17 48
e 17 50
e 17 52
e 17 53
e 17 54
e 17 55
e 17 57
e 17 58
e 17 60
e 17 65
e 18 19
e 18 20
e 18 21
e 18 22
e 18 23
e 18 24
e 18 25
e 18 27
e 18 28
e 18 29
e 18 30
e 18 32
e 18 37
e 18 39
e 18 40
e 18 41
e 18 43
e 18 45
e 18 47
e 18 50
e 18 51
e 18 58
e 18 62
e 18 66
e 18 70
e 19 20
e 19 21
e 19 23
e 19 24
e 19 25
e 19 26
e 19 28
e 19 29
e 19 30
e 19 31
e 19 32
e 19 33
e 19 34
e 19 36
e 19 37
e 19 38
e 19 39
e 19 41
e 19 42
e 19 44
e 19 46
e 19 47
e 19 54
e 19 59
e 19 60
e 19 64
e 20 21
e 20 23
e 20 24
e 20 25
e 20 26
e 20 27
e 20 28
e 20 29
e 20 34
e 20 36
e 20 37
e 20 38
e 20 39
e 20 40
e 20 41
e 20 46
e 20 48
e 20 50
e 20 54
e 20 56
e 20 57
e 20 58
e 20 62
e 20 66
e 21 22
e 21 23
e 21 24
e 21 25
e 21 27
e 21 31
e 21 32
e 21 33
e 21 34
e 21 35
e 21 38
e 21 41
e 21 44
e 21 47
e 21 48
e 21 53
e 21 55
e 21 60
e 21 63
e 21 65
e 21 67
e 21 68
e 21 70
e 22 23
e 22 24
e 22 25
e 22 26
e 22 27
e 22 29
e 22 30
e 22 32
e 22 36
e 22 38
e 22 39
e 22 43
e 22 44
e 22 50
e 22 52
e 22 53
e 22 54
e 22 57
e 22 59
e 22 60
e 22 61
e 22 64
e 22 65
e 22 70
e 23 24
e 23 25
e 23 27
e 23 33
e 23 34
e 23 38
e 23 40
e 23 41
e 23 42
e 23 45
e 23 46
e 23 47
e 23 48
e 23 50
e 23 51
e 23 53
e 23 55
e 23 59
e 23 61
e 23 64
e 23 65
e 23 70
e 24 25
e 24 26
e 24 27
e 24 28
e 24 29
e 24 30
e 24 31
e 24 33
e 24 34
e 24 36
e 24 37
e 24 38
e 24 46
e 24 47
e 24 49
e 24 51
e 24 59
e 24 60
e 24 61
e 24 63
e 24 64
e 24 68
e 24 70
e 25 26
e 25 27
e 25 29
e 25 30
e 25 32
e 25 33
e 25 35
e 25 36
e 25 37
e 25 39
e 25 40
e 25 43
e 25 44
e 25 47
e 25 50
e 25 53
e 25 55
e 25 57
e 25 58
e 25 61
e 25 62
e 25 64
e 25 67
e 25 70
e 26 27
e 26 29
e 26 30
e 26 31
e 26 33
e 26 35
e 26 38
e 26 39
e 26 42
e 26 47
e 26 48
e 26 50
e 26 52
e 26 54
e 26 62
e 26 66
e 26 69
e 26 70
e 27 28
e 27 29
e 27 31
e 27 32
e 27 33
e 27 34
e 27 36
e 27 39
e 27 42
e 27 43
e 27 45
e 27 46
e 27 50
e 27 51
e 27 52
e 27 56
e 27 58
e 27 60
e 27 61
e 27 68
e 27 70
e 28 34
e 28 35
e 28 36
e 28 41
e 28 44
e 28 46
e 28 48
e 28 49
e 28 54
e 28 55
e 28 67
e 28 69
e 29 30
e 29 35
e 29 37
e 29 40
e 29 41
e 29 44
e 29 45
e 29 58
e 29 59
e 29 63
e 29 68
e 29 69
e 30 32
e 30 34
e 30 35
e 30 39
e 30 45
e 30 46
e 30 50
e 30 52
e 30 53
e 30 55
e 30 58
e 30 59
e 30 64
e 30 65
e 31 35
e 31 36
e 31 37
e 31 39
e 31 48
e 31 50
e 31 51
e 31 54
e 31 57
e 31 60
e 31 62
e 31 68
e 32 37
e 32 38
e 32 39
e 32 44
e 32 46
e 32 49
e 32 51
e 32 67
e 32 69
e 32 70
e 33 37
e 33 39
e 33 51
e 33 53
e 33 57
e 33 63
e 33 66
e 34 36
e 34 39
e 34 40
e 34 43
e 34 54
e 34 55
e 35 41
e 35 45
e 35 47
e 35 49
e 35 51
e 35 55
e 35 56
e 35 58
e 35 59
e 35 61
e 35 68
e 36 37
e 36 38
e 36 44
e 36 46
e 36 47
e 37 39
e 37 41
e 37 42
e 37 44
e 37 54
e 37 56
e 37 64
e 37 67
e 38 43
e 38 44
e 38 45
e 38 49
e 38 50
e 38 56
e 38 66
e 38 67
e 39 40
e 39 42
e 39 47
e 39 49
e 39 53
e 39 56
e 39 57
e 39 61
e 39 63
e 39 65
e 39 67
e 39 68
e 40 43
e 40 44
e 40 48
e 40 56
e 40 58
e 40 61
e 40 62
e 40 63
e 40 65
e 40 67
e 40 68
e 41 42
e 41 45
e 41 46
e 41 49
e 41 54
e 41 57
e 41 63
e 41 66
e 41 68
e 41 69
e 42 43
e 42 45
e 42 48
e 42 53
e 42 54
e 42 57
e 42 60
e 42 65
e 42 67
e 42 69
e 43 52
e 44 48
e 44 49
e 44 57
e 44 62
e 45 48
e 45 49
e 45 57
e 46 48
e 46 50
e 46 51
e 46 60
e 47 53
e 47 69
e 48 52
e 48 58
e 48 61
e 48 64
e 48 65
e 48 66
e 48 69
e 49 55
e 49 57
e 49 63
e 50 52
e 50 63
e 51 54
e 51 66
e 52 55
e 52 58
e 53 54
e 53 58
e 53 63
e 53 64
e 53 70
e 54 63
e 54 64
e 54 65
e 54 67
e 55 56
e 55 62
e 55 64
e 55 68
e 55 69
e 56 60
e 56 62
e 57 59
e 59 62
e 59 66
e 60 62
e 62 65
e 62 68
e 62 70
e 63 65
e 65 66
e 65 67
e 65 69
e 66 70
e 67 69
